# Demonstrating gibbs 
variable       POTENTIAL_PATH string /users/PAA0028/osu10666/lammps-22Aug18/tests/POTENTIALS/


variable        tt equal 900.0      # target temperature 
variable        pp equal 0.0      # target pressure 
variable        chempot equal 0     # unused gcmc argument
variable        rep world 0 1 

variable        dmove equal 0.10         # size of max MC displacement
variable        vmove equal 0.05         # size of max MC volume change

units           metal
atom_style      atomic
pair_style      eam/alloy


boundary        p p p
read_data       data.${rep}

#set		atom * type 1
#set             type 1 type/fraction 2 0.30 12345

pair_style      eam/alloy
pair_coeff * * ${POTENTIAL_PATH}/PtAu.eam.alloy Pt Au

variable        temper_T world ${tt} ${tt}
variable 	rep world 0 1 
variable        each equal 50
variable	dach equal v_each*10
variable        ncycles equal 1500

# atom counts
variable        Pt atom "type==1"
variable        Au atom "type==2"

group           Pt dynamic all var Pt
group           Au dynamic all var Au

variable        cPt equal count(Pt)
variable        cAu equal count(Au)


variable        tt     equal 1.0*${temper_T}
velocity        all create ${tt} 87287 mom yes rot yes dist gaussian


thermo_style    custom step temp epair vol etotal press density v_cPt v_cAu
thermo          ${each}


reset_timestep 0    ### reset to get counter on swaps correct

fix             myfix all npt temp ${temper_T} ${temper_T} 1.0 iso ${pp} ${pp} 1.0
run		5000
unfix		myfix 

fix             myfix all npt temp ${temper_T} ${temper_T} 1.0 iso ${pp} ${pp} 2.0 tchain 5 pchain 5
fix             myfix all nvt temp ${temper_T} ${temper_T} 1.0
dump            1 all custom ${dach} dump.${rep} id type x y z


gibbs/multireplica   10000000  ${each}  ${ncycles} ${temper_T} myfix 888 123 types 1 2 fudge 1.0
